Copyright (C) 2013-2015, Filipe Brandao
Build (method = -2)
  #dp: 81782
  Step-3' Graph: 665 vertices and 43571 arcs (0.28s)
  Step-4' Graph: 657 vertices and 43555 arcs (0.29s)
  #V4/#V3 = 0.99
  #A4/#A3 = 1.00
Ready! (0.29s)
Optimize a model with 958 rows, 43556 columns and 129358 nonzeros
Presolve removed 138 rows and 141 columns
Presolve time: 0.29s
Presolved: 820 rows, 43415 columns, 128525 nonzeros
Variable types: 0 continuous, 43415 integer (29031 binary)
Found heuristic solution: objective 370.0000000
Optimize a model with 820 rows, 43415 columns and 128525 nonzeros
Presolved: 820 rows, 43415 columns, 128525 nonzeros

Root barrier log...

Ordering time: 0.01s

Barrier statistics:
 AA' NZ     : 7.805e+04
 Factor NZ  : 1.902e+05 (roughly 20 MBytes of memory)
 Factor Ops : 5.925e+07 (less than 1 second per iteration)
 Threads    : 1

                  Objective                Residual
Iter       Primal          Dual         Primal    Dual     Compl     Time
   0   2.30746588e+04 -3.04056266e+05  4.09e+05 1.08e-01  3.63e+01     0s
   1   7.48082927e+03 -7.98385830e+04  4.35e+04 1.55e-15  4.42e+00     0s
   2   2.42893859e+03 -3.02566495e+04  7.16e+03 1.87e-02  9.14e-01     0s
   3   1.26751493e+03 -1.29979481e+04  1.03e+03 7.66e-03  2.39e-01     0s
   4   8.06207834e+02 -2.78121955e+03  2.23e+02 1.50e-03  5.63e-02     0s
   5   4.70066773e+02 -9.29287775e+02  7.24e+01 4.20e-04  2.04e-02     0s
   6   3.60339530e+02 -4.06905294e+02  3.40e+01 1.26e-04  1.05e-02     0s
   7   3.00193220e+02 -2.02821223e+02  1.73e+01 1.18e-05  6.49e-03     0s
   8   2.49213822e+02 -9.32946343e+01  7.68e+00 8.13e-15  4.22e-03     0s
   9   2.42950395e+02 -3.18605692e+01  6.65e+00 9.52e-15  3.38e-03     0s
  10   2.30710310e+02 -4.70770776e+00  5.04e+00 1.03e-14  2.86e-03     0s
  11   2.16728520e+02  9.58802063e+01  3.61e+00 6.79e-15  1.48e-03     0s
  12   2.04273770e+02  1.25881368e+02  2.35e+00 7.27e-15  9.55e-04     0s
  13   1.91682596e+02  1.45047182e+02  1.23e+00 6.90e-15  5.63e-04     0s
  14   1.89564102e+02  1.50206336e+02  1.05e+00 7.68e-15  4.75e-04     0s
  15   1.87283146e+02  1.54717040e+02  8.37e-01 9.16e-15  3.92e-04     0s
  16   1.86330731e+02  1.58427213e+02  7.38e-01 8.96e-15  3.35e-04     0s
  17   1.85566816e+02  1.60149566e+02  6.50e-01 9.72e-15  3.05e-04     0s
  18   1.83547889e+02  1.63006363e+02  3.72e-01 1.05e-14  2.43e-04     0s
  19   1.82583265e+02  1.68031386e+02  2.23e-01 8.21e-15  1.71e-04     1s
  20   1.82015837e+02  1.70139154e+02  1.45e-01 9.41e-15  1.39e-04     1s
  21   1.81844529e+02  1.71200577e+02  1.25e-01 1.09e-14  1.24e-04     1s
  22   1.81724125e+02  1.71451611e+02  1.12e-01 1.02e-14  1.20e-04     1s
  23   1.81148597e+02  1.73690056e+02  5.07e-02 9.75e-15  8.64e-05     1s
  24   1.80660749e+02  1.76383082e+02  2.46e-02 8.47e-15  4.94e-05     1s
  25   1.80560681e+02  1.76643981e+02  2.13e-02 8.27e-15  4.53e-05     1s
  26   1.80311751e+02  1.77672334e+02  1.40e-02 7.99e-15  3.05e-05     1s
  27   1.80174097e+02  1.78005413e+02  1.01e-02 1.85e-07  2.50e-05     1s
  28   1.80060455e+02  1.78548660e+02  7.02e-03 8.45e-15  1.74e-05     1s
  29   1.79960588e+02  1.78870432e+02  4.69e-03 8.51e-15  1.26e-05     1s
  30   1.79839864e+02  1.78994982e+02  2.19e-03 9.37e-15  9.74e-06     1s
  31   1.79818588e+02  1.79091924e+02  1.87e-03 8.46e-15  8.37e-06     1s
  32   1.79801198e+02  1.79116333e+02  1.61e-03 9.93e-15  7.89e-06     1s
  33   1.79773430e+02  1.79247286e+02  1.23e-03 1.05e-14  6.06e-06     1s
  34   1.79742604e+02  1.79403587e+02  7.76e-04 9.81e-15  3.91e-06     1s
  35   1.79729263e+02  1.79413660e+02  6.54e-04 1.06e-14  3.64e-06     1s
  36   1.79717022e+02  1.79453348e+02  5.29e-04 1.08e-14  3.04e-06     1s
  37   1.79714156e+02  1.79493847e+02  4.84e-04 9.48e-15  2.54e-06     1s
  38   1.79702496e+02  1.79534199e+02  3.39e-04 8.80e-15  1.94e-06     1s
  39   1.79684229e+02  1.79569803e+02  2.08e-04 8.03e-15  1.32e-06     1s
  40   1.79680083e+02  1.79582149e+02  1.79e-04 6.09e-09  1.13e-06     1s
  41   1.79670544e+02  1.79588113e+02  1.14e-04 1.05e-08  9.49e-07     1s
  42   1.79666858e+02  1.79590962e+02  8.94e-05 1.05e-08  8.74e-07     1s
  43   1.79663821e+02  1.79615141e+02  6.88e-05 9.70e-15  5.61e-07     1s
  44   1.79656617e+02  1.79622802e+02  2.71e-05 8.72e-15  3.89e-07     1s
  45   1.79654608e+02  1.79633896e+02  1.54e-05 7.31e-15  2.38e-07     1s
  46   1.79654332e+02  1.79640554e+02  1.39e-05 6.81e-15  1.59e-07     1s
  47   1.79652791e+02  1.79644073e+02  6.15e-06 7.05e-15  1.00e-07     1s
  48   1.79651996e+02  1.79646264e+02  2.48e-06 7.77e-15  6.60e-08     1s
  49   1.79651500e+02  1.79650269e+02  2.54e-07 6.30e-15  1.42e-08     1s
  50   1.79651353e+02  1.79651316e+02  1.64e-08 6.22e-15  4.27e-10     1s
  51   1.79651333e+02  1.79651333e+02  3.62e-11 6.67e-15  4.38e-13     1s
  52   1.79651333e+02  1.79651333e+02  5.46e-11 5.94e-15  2.59e-16     1s

Barrier solved model in 52 iterations and 1.22 seconds
Optimal objective 1.79651333e+02


Root relaxation: objective 1.796513e+02, 759 iterations, 1.25 seconds

    Nodes    |    Current Node    |     Objective Bounds      |     Work
 Expl Unexpl |  Obj  Depth IntInf | Incumbent    BestBd   Gap | It/Node Time

     0     0  179.65133    0  119  370.00000  179.65133  51.4%     -    1s
H    0     0                     196.0000000  179.65133  8.34%     -    2s
H    0     0                     180.0000000  179.65133  0.19%     -    2s

Explored 0 nodes (987 simplex iterations) in 2.39 seconds
Thread count was 1 (of 4 available processors)

Optimal solution found (tolerance 0.00e+00)
Best objective 1.800000000000e+02, best bound 1.800000000000e+02, gap 0.0%
Preprocessing time: 0.36 seconds
Gurobi run time: 2.39 seconds
Total run time: 2.75 seconds
Objective: 180
Solution:
1 x [i=1, i=256]
2 x [i=2, i=255]
1 x [i=3, i=253]
1 x [i=4, i=297, i=298]
1 x [i=5, i=254]
1 x [i=6, i=294, i=301]
1 x [i=7, i=251]
1 x [i=8, i=250]
1 x [i=9, i=250]
1 x [i=10, i=249]
1 x [i=10, i=295, i=297]
1 x [i=11, i=248]
1 x [i=11, i=252]
1 x [i=12, i=247]
1 x [i=12, i=248]
1 x [i=13, i=291, i=300]
1 x [i=13, i=293, i=294]
1 x [i=14, i=245]
1 x [i=15, i=244]
1 x [i=16, i=244]
1 x [i=17, i=243]
1 x [i=18, i=240]
1 x [i=19, i=241]
1 x [i=20, i=239]
1 x [i=21, i=235]
1 x [i=22, i=236]
1 x [i=23, i=234]
1 x [i=24, i=236]
1 x [i=25, i=279, i=299]
1 x [i=26, i=232]
1 x [i=27, i=231]
1 x [i=28, i=230]
1 x [i=29, i=228]
1 x [i=29, i=229]
1 x [i=30, i=227]
1 x [i=31, i=227]
1 x [i=32, i=225]
1 x [i=33, i=224]
1 x [i=34, i=222]
1 x [i=34, i=223]
1 x [i=35, i=221]
1 x [i=36, i=220]
1 x [i=36, i=271, i=292]
1 x [i=37, i=218]
1 x [i=38, i=219]
1 x [i=38, i=277, i=287]
1 x [i=39, i=280, i=284]
1 x [i=40, i=217]
1 x [i=40, i=259, i=295]
1 x [i=41, i=216]
1 x [i=42, i=261, i=292]
1 x [i=42, i=266, i=289]
1 x [i=42, i=278, i=281]
1 x [i=43, i=257, i=294]
1 x [i=44, i=215]
1 x [i=45, i=212]
1 x [i=46, i=211]
1 x [i=47, i=213]
2 x [i=47, i=214]
1 x [i=48, i=210]
1 x [i=49, i=264, i=285]
1 x [i=50, i=209]
2 x [i=51, i=208]
1 x [i=52, i=272, i=276]
1 x [i=53, i=207]
2 x [i=54, i=206]
1 x [i=55, i=265, i=278]
1 x [i=56, i=205]
1 x [i=57, i=204]
2 x [i=58, i=258, i=286]
1 x [i=59, i=203]
1 x [i=60, i=251]
1 x [i=61, i=201]
1 x [i=62, i=202]
1 x [i=62, i=266, i=270]
1 x [i=63, i=197]
1 x [i=63, i=198]
2 x [i=64, i=196]
1 x [i=65, i=194]
1 x [i=66, i=194]
1 x [i=67, i=193]
1 x [i=68, i=190]
1 x [i=68, i=192]
1 x [i=69, i=189]
1 x [i=70, i=191]
1 x [i=71, i=190]
1 x [i=72, i=187]
1 x [i=73, i=186]
1 x [i=74, i=186]
1 x [i=75, i=184]
1 x [i=76, i=185]
1 x [i=77, i=182]
1 x [i=77, i=183]
1 x [i=77, i=184]
1 x [i=78, i=181]
1 x [i=79, i=180]
2 x [i=80, i=180]
2 x [i=81, i=179]
1 x [i=82, i=178]
1 x [i=83, i=177]
1 x [i=84, i=242, i=273]
1 x [i=84, i=245, i=269]
1 x [i=85, i=176]
1 x [i=86, i=175]
1 x [i=87, i=243, i=270]
1 x [i=88, i=174]
1 x [i=89, i=173]
1 x [i=90, i=173]
1 x [i=91, i=173]
1 x [i=92, i=233, i=276]
1 x [i=92, i=246, i=260]
1 x [i=93, i=237, i=269]
1 x [i=93, i=238, i=268]
1 x [i=94, i=172]
1 x [i=94, i=233, i=274]
1 x [i=94, i=242, i=262]
1 x [i=95, i=170]
1 x [i=95, i=171]
1 x [i=96, i=168]
1 x [i=97, i=167]
1 x [i=98, i=169]
1 x [i=99, i=165]
1 x [i=100, i=163]
1 x [i=101, i=161]
1 x [i=102, i=159]
1 x [i=102, i=160]
1 x [i=103, i=159]
1 x [i=104, i=158]
1 x [i=105, i=158]
2 x [i=106, i=157]
2 x [i=107, i=157]
1 x [i=108, i=156]
1 x [i=109, i=154]
1 x [i=109, i=155]
1 x [i=110, i=153]
1 x [i=111, i=226, i=263]
1 x [i=111, i=230, i=260]
1 x [i=112, i=199, i=294]
1 x [i=113, i=151]
1 x [i=113, i=152]
1 x [i=114, i=150]
1 x [i=115, i=147]
1 x [i=116, i=150]
1 x [i=117, i=144]
1 x [i=118, i=146]
1 x [i=118, i=148]
1 x [i=118, i=149]
1 x [i=119, i=143]
1 x [i=119, i=145]
2 x [i=120, i=142]
1 x [i=120, i=188, i=296]
1 x [i=121, i=140]
1 x [i=122, i=139]
1 x [i=122, i=141]
1 x [i=122, i=195, i=288]
1 x [i=123, i=136]
1 x [i=123, i=138]
1 x [i=124, i=137]
1 x [i=124, i=199, i=283]
1 x [i=124, i=200, i=282]
1 x [i=125, i=135]
1 x [i=125, i=193, i=290]
1 x [i=126, i=133]
1 x [i=127, i=134]
1 x [i=128, i=131]
1 x [i=129, i=130]
1 x [i=132, i=267, i=287]
1 x [i=162, i=164, i=281]
1 x [i=165, i=166, i=275]
